Instance Name : r103
Date : 2022-07-20
Solution
Route 1 : 92 98 14 44 38 86 16 61 85 91 100 37
Route 2 : 87 97 95 59 93 94
Route 3 : 96 99 84 17 5 60 89
Route 4 : 83 45 46 8 82 18
Route 5 : 88 6
Route 6 : 42 43 15 41 57 2 13
Route 7 : 22 75 56 74 72 73 21 58
Route 8 : 26 39 23 67 55 4 25 54
Route 9 : 40 53
Route 10 : 36 64 49 19 47 48 7 52
Route 11 : 62 11 63 90 10 31
Route 12 : 76 79 3 68 77 12
Route 13 : 50 33 81 78 34 29 24 80 28
Route 14 : 27 69 30 9 35 51 1
Route 15 : 71 65 66 20 32 70
